data/lp_files/q3/55_6.lp
\ Model foo
\ LP format - for model browsing. Use MPS format to capture full model detail.
Minimize
  z
Subject To
 allocateEach[1]: x[1,1] + x[2,1] + x[3,1] = 1
 allocateEach[2]: x[1,2] + x[2,2] + x[3,2] = 1
 allocateEach[3]: x[1,3] + x[2,3] + x[3,3] = 1
 allocateEach[4]: x[1,4] + x[2,4] + x[3,4] = 1
 allocateEach[5]: x[1,5] + x[2,5] + x[3,5] = 1
 allocateEach[6]: x[1,6] + x[2,6] + x[3,6] = 1
 allocateEach[7]: x[1,7] + x[2,7] + x[3,7] = 1
 allocateEach[8]: x[1,8] + x[2,8] + x[3,8] = 1
 allocateEach[9]: x[1,9] + x[2,9] + x[3,9] = 1
 allocateEach[10]: x[1,10] + x[2,10] + x[3,10] = 1
 allocateEach[11]: x[1,11] + x[2,11] + x[3,11] = 1
 allocateEach[12]: x[1,12] + x[2,12] + x[3,12] = 1
 allocateEach[13]: x[1,13] + x[2,13] + x[3,13] = 1
 allocateEach[14]: x[1,14] + x[2,14] + x[3,14] = 1
 allocateEach[15]: x[1,15] + x[2,15] + x[3,15] = 1
 allocateAllCash: cashProportion[1] + cashProportion[2] + cashProportion[3]
   = 1
 findWorstP[1,2]: z + 0.0475087594275194 cashProportion[1]
   - 0.0475087594275194 cashProportion[2] + 0.0277213611259576 x[1,1]
   + 0.0381257794405844 x[1,2] + 0.0382326741492963 x[1,3]
   + 0.0789358037888235 x[1,4] + 0.0588871073104104 x[1,5]
   + 0.0800641368252271 x[1,6] + 0.0691608765366114 x[1,7]
   + 0.1077973751410416 x[1,8] + 0.00846843636795534 x[1,9]
   + 0.0766316289565889 x[1,10] + 0.0675693330957895 x[1,11]
   + 0.1038185165389869 x[1,12] + 0.1173941445454005 x[1,13]
   + 0.00592671773858305 x[1,14] + 0.0737573490112239 x[1,15]
   - 0.0277213611259576 x[2,1] - 0.0381257794405844 x[2,2]
   - 0.0382326741492963 x[2,3] - 0.0789358037888235 x[2,4]
   - 0.0588871073104104 x[2,5] - 0.0800641368252271 x[2,6]
   - 0.0691608765366114 x[2,7] - 0.1077973751410416 x[2,8]
   - 0.00846843636795534 x[2,9] - 0.0766316289565889 x[2,10]
   - 0.0675693330957895 x[2,11] - 0.1038185165389869 x[2,12]
   - 0.1173941445454005 x[2,13] - 0.00592671773858305 x[2,14]
   - 0.0737573490112239 x[2,15] >= 0
 findWorstP[1,3]: z + 0.0475087594275194 cashProportion[1]
   - 0.0475087594275194 cashProportion[3] + 0.0277213611259576 x[1,1]
   + 0.0381257794405844 x[1,2] + 0.0382326741492963 x[1,3]
   + 0.0789358037888235 x[1,4] + 0.0588871073104104 x[1,5]
   + 0.0800641368252271 x[1,6] + 0.0691608765366114 x[1,7]
   + 0.1077973751410416 x[1,8] + 0.00846843636795534 x[1,9]
   + 0.0766316289565889 x[1,10] + 0.0675693330957895 x[1,11]
   + 0.1038185165389869 x[1,12] + 0.1173941445454005 x[1,13]
   + 0.00592671773858305 x[1,14] + 0.0737573490112239 x[1,15]
   - 0.0277213611259576 x[3,1] - 0.0381257794405844 x[3,2]
   - 0.0382326741492963 x[3,3] - 0.0789358037888235 x[3,4]
   - 0.0588871073104104 x[3,5] - 0.0800641368252271 x[3,6]
   - 0.0691608765366114 x[3,7] - 0.1077973751410416 x[3,8]
   - 0.00846843636795534 x[3,9] - 0.0766316289565889 x[3,10]
   - 0.0675693330957895 x[3,11] - 0.1038185165389869 x[3,12]
   - 0.1173941445454005 x[3,13] - 0.00592671773858305 x[3,14]
   - 0.0737573490112239 x[3,15] >= 0
 findWorstP[2,1]: z - 0.0495994841653647 cashProportion[1]
   + 0.0495994841653647 cashProportion[2] - 0.0452471294298539 x[1,1]
   - 0.0668849043969943 x[1,2] - 0.105039307591201 x[1,3]
   - 0.0895270689184832 x[1,4] - 0.0324504625151898 x[1,5]
   - 0.0178062148153659 x[1,6] - 0.0491654886789177 x[1,7]
   - 0.0517322619844754 x[1,8] - 0.0591597847382387 x[1,9]
   - 0.1076680802519654 x[1,10] - 0.0536170423827592 x[1,11]
   - 0.00719192520397788 x[1,12] - 0.1084988716117352 x[1,13]
   - 0.0662153113607618 x[1,14] - 0.0901966619547157 x[1,15]
   + 0.0452471294298539 x[2,1] + 0.0668849043969943 x[2,2]
   + 0.105039307591201 x[2,3] + 0.0895270689184832 x[2,4]
   + 0.0324504625151898 x[2,5] + 0.0178062148153659 x[2,6]
   + 0.0491654886789177 x[2,7] + 0.0517322619844754 x[2,8]
   + 0.0591597847382387 x[2,9] + 0.1076680802519654 x[2,10]
   + 0.0536170423827592 x[2,11] + 0.00719192520397788 x[2,12]
   + 0.1084988716117352 x[2,13] + 0.0662153113607618 x[2,14]
   + 0.0901966619547157 x[2,15] >= 0
 findWorstP[2,3]: z + 0.0495994841653647 cashProportion[2]
   - 0.0495994841653647 cashProportion[3] + 0.0452471294298539 x[2,1]
   + 0.0668849043969943 x[2,2] + 0.105039307591201 x[2,3]
   + 0.0895270689184832 x[2,4] + 0.0324504625151898 x[2,5]
   + 0.0178062148153659 x[2,6] + 0.0491654886789177 x[2,7]
   + 0.0517322619844754 x[2,8] + 0.0591597847382387 x[2,9]
   + 0.1076680802519654 x[2,10] + 0.0536170423827592 x[2,11]
   + 0.00719192520397788 x[2,12] + 0.1084988716117352 x[2,13]
   + 0.0662153113607618 x[2,14] + 0.0901966619547157 x[2,15]
   - 0.0452471294298539 x[3,1] - 0.0668849043969943 x[3,2]
   - 0.105039307591201 x[3,3] - 0.0895270689184832 x[3,4]
   - 0.0324504625151898 x[3,5] - 0.0178062148153659 x[3,6]
   - 0.0491654886789177 x[3,7] - 0.0517322619844754 x[3,8]
   - 0.0591597847382387 x[3,9] - 0.1076680802519654 x[3,10]
   - 0.0536170423827592 x[3,11] - 0.00719192520397788 x[3,12]
   - 0.1084988716117352 x[3,13] - 0.0662153113607618 x[3,14]
   - 0.0901966619547157 x[3,15] >= 0
 findWorstP[3,1]: z - 0.0523074106524042 cashProportion[1]
   + 0.0523074106524042 cashProportion[3] - 0.0238652561101594 x[1,1]
   - 0.0445005296125328 x[1,2] - 0.050345882752939 x[1,3]
   - 0.0373474912058166 x[1,4] - 0.00475997436936878 x[1,5]
   - 0.0701573145375371 x[1,6] - 0.1273816217912672 x[1,7]
   - 0.0809326411319324 x[1,8] - 0.1068901936681879 x[1,9]
   - 0.0860456905232049 x[1,10] - 0.0537327875926822 x[1,11]
   - 0.1255770161237593 x[1,12] - 0.00938918021210655 x[1,13]
   - 0.124766251258647 x[1,14] - 0.00200075845745446 x[1,15]
   + 0.0238652561101594 x[3,1] + 0.0445005296125328 x[3,2]
   + 0.050345882752939 x[3,3] + 0.0373474912058166 x[3,4]
   + 0.00475997436936878 x[3,5] + 0.0701573145375371 x[3,6]
   + 0.1273816217912672 x[3,7] + 0.0809326411319324 x[3,8]
   + 0.1068901936681879 x[3,9] + 0.0860456905232049 x[3,10]
   + 0.0537327875926822 x[3,11] + 0.1255770161237593 x[3,12]
   + 0.00938918021210655 x[3,13] + 0.124766251258647 x[3,14]
   + 0.00200075845745446 x[3,15] >= 0
 findWorstP[3,2]: z - 0.0523074106524042 cashProportion[2]
   + 0.0523074106524042 cashProportion[3] - 0.0238652561101594 x[2,1]
   - 0.0445005296125328 x[2,2] - 0.050345882752939 x[2,3]
   - 0.0373474912058166 x[2,4] - 0.00475997436936878 x[2,5]
   - 0.0701573145375371 x[2,6] - 0.1273816217912672 x[2,7]
   - 0.0809326411319324 x[2,8] - 0.1068901936681879 x[2,9]
   - 0.0860456905232049 x[2,10] - 0.0537327875926822 x[2,11]
   - 0.1255770161237593 x[2,12] - 0.00938918021210655 x[2,13]
   - 0.124766251258647 x[2,14] - 0.00200075845745446 x[2,15]
   + 0.0238652561101594 x[3,1] + 0.0445005296125328 x[3,2]
   + 0.050345882752939 x[3,3] + 0.0373474912058166 x[3,4]
   + 0.00475997436936878 x[3,5] + 0.0701573145375371 x[3,6]
   + 0.1273816217912672 x[3,7] + 0.0809326411319324 x[3,8]
   + 0.1068901936681879 x[3,9] + 0.0860456905232049 x[3,10]
   + 0.0537327875926822 x[3,11] + 0.1255770161237593 x[3,12]
   + 0.00938918021210655 x[3,13] + 0.124766251258647 x[3,14]
   + 0.00200075845745446 x[3,15] >= 0
Bounds
 z <= 1
 -infinity <= cashProportion[1] <= 1
 -infinity <= cashProportion[2] <= 1
 -infinity <= cashProportion[3] <= 1
Binaries
 x[1,1] x[1,2] x[1,3] x[1,4] x[1,5] x[1,6] x[1,7] x[1,8] x[1,9] x[1,10]
 x[1,11] x[1,12] x[1,13] x[1,14] x[1,15] x[2,1] x[2,2] x[2,3] x[2,4] x[2,5]
 x[2,6] x[2,7] x[2,8] x[2,9] x[2,10] x[2,11] x[2,12] x[2,13] x[2,14]
 x[2,15] x[3,1] x[3,2] x[3,3] x[3,4] x[3,5] x[3,6] x[3,7] x[3,8] x[3,9]
 x[3,10] x[3,11] x[3,12] x[3,13] x[3,14] x[3,15]
End
