data/mps_files/pEFS/55_6.mps
NAME foo
ROWS
 N  OBJ
 E  allocateEach[1]
 E  allocateEach[2]
 E  allocateEach[3]
 E  allocateEach[4]
 E  allocateEach[5]
 E  allocateEach[6]
 E  allocateEach[7]
 E  allocateEach[8]
 E  allocateEach[9]
 E  allocateEach[10]
 E  allocateEach[11]
 E  allocateEach[12]
 E  allocateEach[13]
 E  allocateEach[14]
 E  allocateEach[15]
 E  allocateAllCash
 G  findWorstP[1,2]
 G  findWorstP[1,3]
 G  findWorstP[2,1]
 G  findWorstP[2,3]
 G  findWorstP[3,1]
 G  findWorstP[3,2]
COLUMNS
    z         OBJ       1
    z         findWorstP[1,2]  1
    z         findWorstP[1,3]  1
    z         findWorstP[2,1]  1
    z         findWorstP[2,3]  1
    z         findWorstP[3,1]  1
    z         findWorstP[3,2]  1
    cashProportion[1]  allocateAllCash  1
    cashProportion[1]  findWorstP[1,2]  4.7508759427519448e-02
    cashProportion[1]  findWorstP[1,3]  4.7508759427519448e-02
    cashProportion[1]  findWorstP[2,1]  -4.9599484165364680e-02
    cashProportion[1]  findWorstP[3,1]  -5.2307410652404178e-02
    cashProportion[2]  allocateAllCash  1
    cashProportion[2]  findWorstP[1,2]  -4.7508759427519448e-02
    cashProportion[2]  findWorstP[2,1]  4.9599484165364680e-02
    cashProportion[2]  findWorstP[2,3]  4.9599484165364680e-02
    cashProportion[2]  findWorstP[3,2]  -5.2307410652404178e-02
    cashProportion[3]  allocateAllCash  1
    cashProportion[3]  findWorstP[1,3]  -4.7508759427519448e-02
    cashProportion[3]  findWorstP[2,3]  -4.9599484165364680e-02
    cashProportion[3]  findWorstP[3,1]  5.2307410652404178e-02
    cashProportion[3]  findWorstP[3,2]  5.2307410652404178e-02
    MARKER    'MARKER'                 'INTORG'
    x[1,1]    allocateEach[1]  1
    x[1,1]    findWorstP[1,2]  2.7721361125957595e-02
    x[1,1]    findWorstP[1,3]  2.7721361125957595e-02
    x[1,1]    findWorstP[2,1]  -4.5247129429853927e-02
    x[1,1]    findWorstP[3,1]  -2.3865256110159404e-02
    x[1,2]    allocateEach[2]  1
    x[1,2]    findWorstP[1,2]  3.8125779440584352e-02
    x[1,2]    findWorstP[1,3]  3.8125779440584352e-02
    x[1,2]    findWorstP[2,1]  -6.6884904396994266e-02
    x[1,2]    findWorstP[3,1]  -4.4500529612532848e-02
    x[1,3]    allocateEach[3]  1
    x[1,3]    findWorstP[1,2]  3.8232674149296271e-02
    x[1,3]    findWorstP[1,3]  3.8232674149296271e-02
    x[1,3]    findWorstP[2,1]  -1.0503930759120104e-01
    x[1,3]    findWorstP[3,1]  -5.0345882752939018e-02
    x[1,4]    allocateEach[4]  1
    x[1,4]    findWorstP[1,2]  7.8935803788823547e-02
    x[1,4]    findWorstP[1,3]  7.8935803788823547e-02
    x[1,4]    findWorstP[2,1]  -8.9527068918483235e-02
    x[1,4]    findWorstP[3,1]  -3.7347491205816583e-02
    x[1,5]    allocateEach[5]  1
    x[1,5]    findWorstP[1,2]  5.8887107310410351e-02
    x[1,5]    findWorstP[1,3]  5.8887107310410351e-02
    x[1,5]    findWorstP[2,1]  -3.2450462515189842e-02
    x[1,5]    findWorstP[3,1]  -0.00475997436936878
    x[1,6]    allocateEach[6]  1
    x[1,6]    findWorstP[1,2]  8.0064136825227145e-02
    x[1,6]    findWorstP[1,3]  8.0064136825227145e-02
    x[1,6]    findWorstP[2,1]  -1.7806214815365918e-02
    x[1,6]    findWorstP[3,1]  -0.0701573145375371
    x[1,7]    allocateEach[7]  1
    x[1,7]    findWorstP[1,2]  6.9160876536611432e-02
    x[1,7]    findWorstP[1,3]  6.9160876536611432e-02
    x[1,7]    findWorstP[2,1]  -4.9165488678917735e-02
    x[1,7]    findWorstP[3,1]  -1.2738162179126725e-01
    x[1,8]    allocateEach[8]  1
    x[1,8]    findWorstP[1,2]  1.0779737514104161e-01
    x[1,8]    findWorstP[1,3]  1.0779737514104161e-01
    x[1,8]    findWorstP[2,1]  -5.1732261984475357e-02
    x[1,8]    findWorstP[3,1]  -8.0932641131932354e-02
    x[1,9]    allocateEach[9]  1
    x[1,9]    findWorstP[1,2]  8.4684363679553409e-03
    x[1,9]    findWorstP[1,3]  8.4684363679553409e-03
    x[1,9]    findWorstP[2,1]  -5.9159784738238720e-02
    x[1,9]    findWorstP[3,1]  -1.0689019366818793e-01
    x[1,10]   allocateEach[10]  1
    x[1,10]   findWorstP[1,2]  7.6631628956588857e-02
    x[1,10]   findWorstP[1,3]  7.6631628956588857e-02
    x[1,10]   findWorstP[2,1]  -1.0766808025196536e-01
    x[1,10]   findWorstP[3,1]  -8.6045690523204876e-02
    x[1,11]   allocateEach[11]  1
    x[1,11]   findWorstP[1,2]  6.7569333095789524e-02
    x[1,11]   findWorstP[1,3]  6.7569333095789524e-02
    x[1,11]   findWorstP[2,1]  -5.3617042382759217e-02
    x[1,11]   findWorstP[3,1]  -5.3732787592682185e-02
    x[1,12]   allocateEach[12]  1
    x[1,12]   findWorstP[1,2]  1.0381851653898685e-01
    x[1,12]   findWorstP[1,3]  1.0381851653898685e-01
    x[1,12]   findWorstP[2,1]  -7.1919252039778789e-03
    x[1,12]   findWorstP[3,1]  -1.2557701612375932e-01
    x[1,13]   allocateEach[13]  1
    x[1,13]   findWorstP[1,2]  1.1739414454540054e-01
    x[1,13]   findWorstP[1,3]  1.1739414454540054e-01
    x[1,13]   findWorstP[2,1]  -1.0849887161173523e-01
    x[1,13]   findWorstP[3,1]  -0.00938918021210655
    x[1,14]   allocateEach[14]  1
    x[1,14]   findWorstP[1,2]  0.00592671773858305
    x[1,14]   findWorstP[1,3]  0.00592671773858305
    x[1,14]   findWorstP[2,1]  -6.6215311360761850e-02
    x[1,14]   findWorstP[3,1]  -1.2476625125864704e-01
    x[1,15]   allocateEach[15]  1
    x[1,15]   findWorstP[1,2]  7.3757349011223938e-02
    x[1,15]   findWorstP[1,3]  7.3757349011223938e-02
    x[1,15]   findWorstP[2,1]  -9.0196661954715665e-02
    x[1,15]   findWorstP[3,1]  -2.0007584574544598e-03
    x[2,1]    allocateEach[1]  1
    x[2,1]    findWorstP[1,2]  -2.7721361125957595e-02
    x[2,1]    findWorstP[2,1]  4.5247129429853927e-02
    x[2,1]    findWorstP[2,3]  4.5247129429853927e-02
    x[2,1]    findWorstP[3,2]  -2.3865256110159404e-02
    x[2,2]    allocateEach[2]  1
    x[2,2]    findWorstP[1,2]  -3.8125779440584352e-02
    x[2,2]    findWorstP[2,1]  6.6884904396994266e-02
    x[2,2]    findWorstP[2,3]  6.6884904396994266e-02
    x[2,2]    findWorstP[3,2]  -4.4500529612532848e-02
    x[2,3]    allocateEach[3]  1
    x[2,3]    findWorstP[1,2]  -3.8232674149296271e-02
    x[2,3]    findWorstP[2,1]  1.0503930759120104e-01
    x[2,3]    findWorstP[2,3]  1.0503930759120104e-01
    x[2,3]    findWorstP[3,2]  -5.0345882752939018e-02
    x[2,4]    allocateEach[4]  1
    x[2,4]    findWorstP[1,2]  -7.8935803788823547e-02
    x[2,4]    findWorstP[2,1]  8.9527068918483235e-02
    x[2,4]    findWorstP[2,3]  8.9527068918483235e-02
    x[2,4]    findWorstP[3,2]  -3.7347491205816583e-02
    x[2,5]    allocateEach[5]  1
    x[2,5]    findWorstP[1,2]  -5.8887107310410351e-02
    x[2,5]    findWorstP[2,1]  3.2450462515189842e-02
    x[2,5]    findWorstP[2,3]  3.2450462515189842e-02
    x[2,5]    findWorstP[3,2]  -0.00475997436936878
    x[2,6]    allocateEach[6]  1
    x[2,6]    findWorstP[1,2]  -8.0064136825227145e-02
    x[2,6]    findWorstP[2,1]  1.7806214815365918e-02
    x[2,6]    findWorstP[2,3]  1.7806214815365918e-02
    x[2,6]    findWorstP[3,2]  -0.0701573145375371
    x[2,7]    allocateEach[7]  1
    x[2,7]    findWorstP[1,2]  -6.9160876536611432e-02
    x[2,7]    findWorstP[2,1]  4.9165488678917735e-02
    x[2,7]    findWorstP[2,3]  4.9165488678917735e-02
    x[2,7]    findWorstP[3,2]  -1.2738162179126725e-01
    x[2,8]    allocateEach[8]  1
    x[2,8]    findWorstP[1,2]  -1.0779737514104161e-01
    x[2,8]    findWorstP[2,1]  5.1732261984475357e-02
    x[2,8]    findWorstP[2,3]  5.1732261984475357e-02
    x[2,8]    findWorstP[3,2]  -8.0932641131932354e-02
    x[2,9]    allocateEach[9]  1
    x[2,9]    findWorstP[1,2]  -8.4684363679553409e-03
    x[2,9]    findWorstP[2,1]  5.9159784738238720e-02
    x[2,9]    findWorstP[2,3]  5.9159784738238720e-02
    x[2,9]    findWorstP[3,2]  -1.0689019366818793e-01
    x[2,10]   allocateEach[10]  1
    x[2,10]   findWorstP[1,2]  -7.6631628956588857e-02
    x[2,10]   findWorstP[2,1]  1.0766808025196536e-01
    x[2,10]   findWorstP[2,3]  1.0766808025196536e-01
    x[2,10]   findWorstP[3,2]  -8.6045690523204876e-02
    x[2,11]   allocateEach[11]  1
    x[2,11]   findWorstP[1,2]  -6.7569333095789524e-02
    x[2,11]   findWorstP[2,1]  5.3617042382759217e-02
    x[2,11]   findWorstP[2,3]  5.3617042382759217e-02
    x[2,11]   findWorstP[3,2]  -5.3732787592682185e-02
    x[2,12]   allocateEach[12]  1
    x[2,12]   findWorstP[1,2]  -1.0381851653898685e-01
    x[2,12]   findWorstP[2,1]  7.1919252039778789e-03
    x[2,12]   findWorstP[2,3]  7.1919252039778789e-03
    x[2,12]   findWorstP[3,2]  -1.2557701612375932e-01
    x[2,13]   allocateEach[13]  1
    x[2,13]   findWorstP[1,2]  -1.1739414454540054e-01
    x[2,13]   findWorstP[2,1]  1.0849887161173523e-01
    x[2,13]   findWorstP[2,3]  1.0849887161173523e-01
    x[2,13]   findWorstP[3,2]  -0.00938918021210655
    x[2,14]   allocateEach[14]  1
    x[2,14]   findWorstP[1,2]  -0.00592671773858305
    x[2,14]   findWorstP[2,1]  6.6215311360761850e-02
    x[2,14]   findWorstP[2,3]  6.6215311360761850e-02
    x[2,14]   findWorstP[3,2]  -1.2476625125864704e-01
    x[2,15]   allocateEach[15]  1
    x[2,15]   findWorstP[1,2]  -7.3757349011223938e-02
    x[2,15]   findWorstP[2,1]  9.0196661954715665e-02
    x[2,15]   findWorstP[2,3]  9.0196661954715665e-02
    x[2,15]   findWorstP[3,2]  -2.0007584574544598e-03
    x[3,1]    allocateEach[1]  1
    x[3,1]    findWorstP[1,3]  -2.7721361125957595e-02
    x[3,1]    findWorstP[2,3]  -4.5247129429853927e-02
    x[3,1]    findWorstP[3,1]  2.3865256110159404e-02
    x[3,1]    findWorstP[3,2]  2.3865256110159404e-02
    x[3,2]    allocateEach[2]  1
    x[3,2]    findWorstP[1,3]  -3.8125779440584352e-02
    x[3,2]    findWorstP[2,3]  -6.6884904396994266e-02
    x[3,2]    findWorstP[3,1]  4.4500529612532848e-02
    x[3,2]    findWorstP[3,2]  4.4500529612532848e-02
    x[3,3]    allocateEach[3]  1
    x[3,3]    findWorstP[1,3]  -3.8232674149296271e-02
    x[3,3]    findWorstP[2,3]  -1.0503930759120104e-01
    x[3,3]    findWorstP[3,1]  5.0345882752939018e-02
    x[3,3]    findWorstP[3,2]  5.0345882752939018e-02
    x[3,4]    allocateEach[4]  1
    x[3,4]    findWorstP[1,3]  -7.8935803788823547e-02
    x[3,4]    findWorstP[2,3]  -8.9527068918483235e-02
    x[3,4]    findWorstP[3,1]  3.7347491205816583e-02
    x[3,4]    findWorstP[3,2]  3.7347491205816583e-02
    x[3,5]    allocateEach[5]  1
    x[3,5]    findWorstP[1,3]  -5.8887107310410351e-02
    x[3,5]    findWorstP[2,3]  -3.2450462515189842e-02
    x[3,5]    findWorstP[3,1]  0.00475997436936878
    x[3,5]    findWorstP[3,2]  0.00475997436936878
    x[3,6]    allocateEach[6]  1
    x[3,6]    findWorstP[1,3]  -8.0064136825227145e-02
    x[3,6]    findWorstP[2,3]  -1.7806214815365918e-02
    x[3,6]    findWorstP[3,1]  0.0701573145375371
    x[3,6]    findWorstP[3,2]  0.0701573145375371
    x[3,7]    allocateEach[7]  1
    x[3,7]    findWorstP[1,3]  -6.9160876536611432e-02
    x[3,7]    findWorstP[2,3]  -4.9165488678917735e-02
    x[3,7]    findWorstP[3,1]  1.2738162179126725e-01
    x[3,7]    findWorstP[3,2]  1.2738162179126725e-01
    x[3,8]    allocateEach[8]  1
    x[3,8]    findWorstP[1,3]  -1.0779737514104161e-01
    x[3,8]    findWorstP[2,3]  -5.1732261984475357e-02
    x[3,8]    findWorstP[3,1]  8.0932641131932354e-02
    x[3,8]    findWorstP[3,2]  8.0932641131932354e-02
    x[3,9]    allocateEach[9]  1
    x[3,9]    findWorstP[1,3]  -8.4684363679553409e-03
    x[3,9]    findWorstP[2,3]  -5.9159784738238720e-02
    x[3,9]    findWorstP[3,1]  1.0689019366818793e-01
    x[3,9]    findWorstP[3,2]  1.0689019366818793e-01
    x[3,10]   allocateEach[10]  1
    x[3,10]   findWorstP[1,3]  -7.6631628956588857e-02
    x[3,10]   findWorstP[2,3]  -1.0766808025196536e-01
    x[3,10]   findWorstP[3,1]  8.6045690523204876e-02
    x[3,10]   findWorstP[3,2]  8.6045690523204876e-02
    x[3,11]   allocateEach[11]  1
    x[3,11]   findWorstP[1,3]  -6.7569333095789524e-02
    x[3,11]   findWorstP[2,3]  -5.3617042382759217e-02
    x[3,11]   findWorstP[3,1]  5.3732787592682185e-02
    x[3,11]   findWorstP[3,2]  5.3732787592682185e-02
    x[3,12]   allocateEach[12]  1
    x[3,12]   findWorstP[1,3]  -1.0381851653898685e-01
    x[3,12]   findWorstP[2,3]  -7.1919252039778789e-03
    x[3,12]   findWorstP[3,1]  1.2557701612375932e-01
    x[3,12]   findWorstP[3,2]  1.2557701612375932e-01
    x[3,13]   allocateEach[13]  1
    x[3,13]   findWorstP[1,3]  -1.1739414454540054e-01
    x[3,13]   findWorstP[2,3]  -1.0849887161173523e-01
    x[3,13]   findWorstP[3,1]  0.00938918021210655
    x[3,13]   findWorstP[3,2]  0.00938918021210655
    x[3,14]   allocateEach[14]  1
    x[3,14]   findWorstP[1,3]  -0.00592671773858305
    x[3,14]   findWorstP[2,3]  -6.6215311360761850e-02
    x[3,14]   findWorstP[3,1]  1.2476625125864704e-01
    x[3,14]   findWorstP[3,2]  1.2476625125864704e-01
    x[3,15]   allocateEach[15]  1
    x[3,15]   findWorstP[1,3]  -7.3757349011223938e-02
    x[3,15]   findWorstP[2,3]  -9.0196661954715665e-02
    x[3,15]   findWorstP[3,1]  2.0007584574544598e-03
    x[3,15]   findWorstP[3,2]  2.0007584574544598e-03
    MARKER    'MARKER'                 'INTEND'
RHS
    RHS1      allocateEach[1]  1
    RHS1      allocateEach[2]  1
    RHS1      allocateEach[3]  1
    RHS1      allocateEach[4]  1
    RHS1      allocateEach[5]  1
    RHS1      allocateEach[6]  1
    RHS1      allocateEach[7]  1
    RHS1      allocateEach[8]  1
    RHS1      allocateEach[9]  1
    RHS1      allocateEach[10]  1
    RHS1      allocateEach[11]  1
    RHS1      allocateEach[12]  1
    RHS1      allocateEach[13]  1
    RHS1      allocateEach[14]  1
    RHS1      allocateEach[15]  1
    RHS1      allocateAllCash  1
BOUNDS
 UP BND1      z         1
 MI BND1      cashProportion[1]
 UP BND1      cashProportion[1]  1
 MI BND1      cashProportion[2]
 UP BND1      cashProportion[2]  1
 MI BND1      cashProportion[3]
 UP BND1      cashProportion[3]  1
 BV BND1      x[1,1]  
 BV BND1      x[1,2]  
 BV BND1      x[1,3]  
 BV BND1      x[1,4]  
 BV BND1      x[1,5]  
 BV BND1      x[1,6]  
 BV BND1      x[1,7]  
 BV BND1      x[1,8]  
 BV BND1      x[1,9]  
 BV BND1      x[1,10] 
 BV BND1      x[1,11] 
 BV BND1      x[1,12] 
 BV BND1      x[1,13] 
 BV BND1      x[1,14] 
 BV BND1      x[1,15] 
 BV BND1      x[2,1]  
 BV BND1      x[2,2]  
 BV BND1      x[2,3]  
 BV BND1      x[2,4]  
 BV BND1      x[2,5]  
 BV BND1      x[2,6]  
 BV BND1      x[2,7]  
 BV BND1      x[2,8]  
 BV BND1      x[2,9]  
 BV BND1      x[2,10] 
 BV BND1      x[2,11] 
 BV BND1      x[2,12] 
 BV BND1      x[2,13] 
 BV BND1      x[2,14] 
 BV BND1      x[2,15] 
 BV BND1      x[3,1]  
 BV BND1      x[3,2]  
 BV BND1      x[3,3]  
 BV BND1      x[3,4]  
 BV BND1      x[3,5]  
 BV BND1      x[3,6]  
 BV BND1      x[3,7]  
 BV BND1      x[3,8]  
 BV BND1      x[3,9]  
 BV BND1      x[3,10] 
 BV BND1      x[3,11] 
 BV BND1      x[3,12] 
 BV BND1      x[3,13] 
 BV BND1      x[3,14] 
 BV BND1      x[3,15] 
ENDATA
